decision_x1=[0,4];
decision_x2=[0,4];
decision_x3=[0,4];
decision_x4=[0,4];
decision_x5=[0,4];
decision_x6=[0,4];
decision_x7=[0,4];
decision_x8=[0,4];
decision_x9=[0,4];
decision_x10=[0,4];
decision_x11=[0,4];
decision_x12=[0,4];
decision_x13=[0,4];
decision_x14=[0,4];
random_y2=[0,4];
random_y3=[0,4];
random_y4=[0,4];
random_y5=[0,4];
random_y6=[0,4];
random_y7=[0,4];
random_y1=[0,4];
constraint_x3_x1=[
0,1,7|
0,2,8.1|
0,3,2|
0,4,9.5|
1,0,7.8|
1,2,4.8|
1,3,6.7|
1,4,6.7|
2,0,6.6|
2,1,0.56|
2,3,2.2|
2,4,8.6|
3,0,3.3|
3,1,7.2|
3,2,8.5|
3,4,6.4|
4,0,6.1|
4,1,7|
4,2,7.5|
4,3,9.9|
];
constraint_x4_x3=[
0,1,1.9|
0,2,2.3|
0,3,5.2|
0,4,2|
1,0,5.9|
1,2,5.7|
1,3,5.1|
1,4,5.3|
2,0,1.8|
2,1,8.8|
2,3,4.1|
2,4,8.5|
3,0,4.2|
3,1,2.2|
3,2,3.1|
3,4,2.3|
4,0,4.1|
4,1,8|
4,2,6.7|
4,3,9.6|
];
constraint_x5_x1=[
0,1,9.1|
0,2,5.9|
0,3,6.1|
0,4,6|
1,0,6.5|
1,2,6.7|
1,3,4|
1,4,8.3|
2,0,4.4|
2,1,7.8|
2,3,9|
2,4,9.7|
3,0,7.9|
3,1,1.5|
3,2,0.63|
3,4,7.9|
4,0,5.3|
4,1,2.3|
4,2,2.9|
4,3,8.2|
];
constraint_x5_x2=[
0,1,1.1|
0,2,7|
0,3,2.7|
0,4,5.5|
1,0,6.7|
1,2,7|
1,3,8.5|
1,4,2.1|
2,0,7.3|
2,1,1.1|
2,3,7.5|
2,4,8.2|
3,0,9.6|
3,1,3.9|
3,2,2|
3,4,4.5|
4,0,4.9|
4,1,10|
4,2,9.4|
4,3,7.8|
];
constraint_x5_x3=[
0,1,6.7|
0,2,1.5|
0,3,4.6|
0,4,5.8|
1,0,3.3|
1,2,0.96|
1,3,0.25|
1,4,2.3|
2,0,9.8|
2,1,4.1|
2,3,0.19|
2,4,6.1|
3,0,1.1|
3,1,2.6|
3,2,2.5|
3,4,4.7|
4,0,6|
4,1,3.3|
4,2,7.3|
4,3,7.2|
];
constraint_x6_x1=[
0,1,4.1|
0,2,7.5|
0,3,8.2|
0,4,2.4|
1,0,1.3|
1,2,5.2|
1,3,3.8|
1,4,3.1|
2,0,1.2|
2,1,0.38|
2,3,6.9|
2,4,1.6|
3,0,6.2|
3,1,1.8|
3,2,1.8|
3,4,2.3|
4,0,4.6|
4,1,4.1|
4,2,2.6|
4,3,7.5|
];
constraint_x6_x2=[
0,1,9.6|
0,2,1.5|
0,3,1.2|
0,4,2.9|
1,0,1.2|
1,2,1.8|
1,3,6.2|
1,4,9.1|
2,0,5.2|
2,1,7.4|
2,3,0.94|
2,4,3.5|
3,0,3.5|
3,1,8.6|
3,2,6.4|
3,4,3.7|
4,0,1.5|
4,1,6.9|
4,2,8.9|
4,3,8.4|
];
constraint_x7_x1=[
0,1,5.9|
0,2,2.3|
0,3,7.7|
0,4,6.2|
1,0,6.4|
1,2,8.4|
1,3,3.4|
1,4,0.5|
2,0,8.3|
2,1,8|
2,3,8.8|
2,4,8.9|
3,0,9.7|
3,1,4.1|
3,2,9.1|
3,4,3.4|
4,0,6.3|
4,1,8|
4,2,6.9|
4,3,6.6|
];
constraint_x7_x3=[
0,1,8.4|
0,2,5.8|
0,3,3.6|
0,4,8.8|
1,0,3.3|
1,2,0.91|
1,3,5|
1,4,2.5|
2,0,6.5|
2,1,4.3|
2,3,0.025|
2,4,0.45|
3,0,8.2|
3,1,1.5|
3,2,6.3|
3,4,7|
4,0,5.6|
4,1,5.8|
4,2,2.8|
4,3,6.2|
];
constraint_x7_x6=[
0,1,8.7|
0,2,7|
0,3,4.9|
0,4,3.1|
1,0,0.069|
1,2,4|
1,3,8.9|
1,4,7.8|
2,0,7.9|
2,1,2.1|
2,3,6.9|
2,4,7.7|
3,0,6|
3,1,3.9|
3,2,9.7|
3,4,6.6|
4,0,6|
4,1,5|
4,2,1.9|
4,3,4.8|
];
constraint_x8_x1=[
0,1,6|
0,2,5.2|
0,3,4|
0,4,9.7|
1,0,8.4|
1,2,1.8|
1,3,9.1|
1,4,3.1|
2,0,6.7|
2,1,3.5|
2,3,2.7|
2,4,1.1|
3,0,3.9|
3,1,6.8|
3,2,0.6|
3,4,8.1|
4,0,1.8|
4,1,7.9|
4,2,5.4|
4,3,5.1|
];
constraint_x8_x2=[
0,1,0.55|
0,2,0.94|
0,3,1.7|
0,4,9.4|
1,0,6.9|
1,2,7|
1,3,9.4|
1,4,2|
2,0,8.3|
2,1,7.6|
2,3,3.8|
2,4,7|
3,0,0.15|
3,1,9.6|
3,2,6.6|
3,4,3.9|
4,0,9|
4,1,5|
4,2,2.2|
4,3,3|
];
constraint_x8_x5=[
0,1,0.26|
0,2,0.92|
0,3,9.6|
0,4,3.8|
1,0,0.68|
1,2,7.6|
1,3,5.6|
1,4,0.11|
2,0,7.7|
2,1,5.7|
2,3,1.2|
2,4,1.2|
3,0,1.2|
3,1,4.7|
3,2,8.5|
3,4,1.7|
4,0,7|
4,1,5.2|
4,2,1.5|
4,3,2.2|
];
constraint_x8_x7=[
0,1,9.3|
0,2,9.9|
0,3,3.7|
0,4,0.22|
1,0,0.48|
1,2,5.5|
1,3,8.5|
1,4,2.2|
2,0,3.1|
2,1,5.9|
2,3,5.5|
2,4,5.1|
3,0,2.3|
3,1,3.2|
3,2,2.2|
3,4,0.54|
4,0,6.9|
4,1,3.1|
4,2,4|
4,3,5.6|
];
constraint_x9_x4=[
0,1,5.2|
0,2,7.2|
0,3,7.7|
0,4,4.9|
1,0,6.6|
1,2,6|
1,3,1.6|
1,4,3.2|
2,0,6.9|
2,1,6.9|
2,3,9.3|
2,4,7.3|
3,0,2.5|
3,1,7.6|
3,2,9.5|
3,4,8.8|
4,0,9.6|
4,1,6.8|
4,2,3.5|
4,3,1.3|
];
constraint_x9_x6=[
0,1,2.9|
0,2,2.3|
0,3,1.3|
0,4,6.5|
1,0,1.4|
1,2,1.6|
1,3,7.6|
1,4,0.92|
2,0,4.1|
2,1,6.3|
2,3,1.2|
2,4,5|
3,0,1.8|
3,1,9.7|
3,2,5.5|
3,4,5.1|
4,0,6.8|
4,1,9.6|
4,2,8.4|
4,3,2.8|
];
constraint_x10_x2=[
0,1,6|
0,2,3.1|
0,3,6.7|
0,4,7.6|
1,0,9.7|
1,2,8.2|
1,3,0.84|
1,4,7.6|
2,0,4.3|
2,1,1|
2,3,0.29|
2,4,9.2|
3,0,0.73|
3,1,8.8|
3,2,9.1|
3,4,8.3|
4,0,5.1|
4,1,3.2|
4,2,1.7|
4,3,6|
];
constraint_x10_x3=[
0,1,5.1|
0,2,0.023|
0,3,4.9|
0,4,2.8|
1,0,9.1|
1,2,7.9|
1,3,6.1|
1,4,5.7|
2,0,1.7|
2,1,7.6|
2,3,7.3|
2,4,8|
3,0,5.7|
3,1,1.3|
3,2,1.9|
3,4,7|
4,0,9.2|
4,1,3.8|
4,2,3.7|
4,3,4.6|
];
constraint_x10_x6=[
0,1,8.5|
0,2,4.8|
0,3,7.6|
0,4,6.2|
1,0,9|
1,2,8.2|
1,3,0.7|
1,4,2.4|
2,0,1.2|
2,1,3.7|
2,3,2.7|
2,4,1.4|
3,0,7.2|
3,1,1.4|
3,2,7.5|
3,4,8.5|
4,0,9.9|
4,1,4.1|
4,2,8.2|
4,3,0.42|
];
constraint_x10_x7=[
0,1,2|
0,2,6.5|
0,3,9.2|
0,4,6.3|
1,0,0.2|
1,2,6.6|
1,3,1.7|
1,4,5.5|
2,0,3.2|
2,1,7.5|
2,3,9.9|
2,4,3.9|
3,0,9.2|
3,1,2.7|
3,2,4|
3,4,0.26|
4,0,9|
4,1,7.4|
4,2,6.1|
4,3,7.9|
];
constraint_x10_x9=[
0,1,1|
0,2,8.5|
0,3,8.8|
0,4,8.7|
1,0,6.4|
1,2,8.5|
1,3,5.4|
1,4,4.8|
2,0,8.5|
2,1,0.67|
2,3,1.3|
2,4,8.2|
3,0,7.7|
3,1,7.4|
3,2,6.5|
3,4,9.5|
4,0,1.7|
4,1,4.9|
4,2,9.6|
4,3,7.5|
];
constraint_x11_x1=[
0,1,2.7|
0,2,9.6|
0,3,9.2|
0,4,8.1|
1,0,8.2|
1,2,5.9|
1,3,7.7|
1,4,9.6|
2,0,7|
2,1,8.8|
2,3,9.3|
2,4,6.3|
3,0,7.1|
3,1,6.3|
3,2,6.4|
3,4,0.29|
4,0,9|
4,1,7.7|
4,2,1.7|
4,3,7.3|
];
constraint_x11_x2=[
0,1,1.2|
0,2,7.8|
0,3,7.6|
0,4,1|
1,0,1.7|
1,2,8.2|
1,3,2.9|
1,4,5.4|
2,0,7.1|
2,1,4.2|
2,3,0.7|
2,4,9.1|
3,0,9.1|
3,1,9.1|
3,2,6.1|
3,4,9.8|
4,0,6.3|
4,1,9.8|
4,2,4.8|
4,3,4.9|
];
constraint_x11_x4=[
0,1,6.3|
0,2,9.3|
0,3,1.4|
0,4,0.22|
1,0,8.6|
1,2,8.5|
1,3,3.9|
1,4,6.8|
2,0,8.3|
2,1,4.8|
2,3,7.6|
2,4,0.74|
3,0,4.5|
3,1,0.63|
3,2,7.3|
3,4,8.5|
4,0,0.4|
4,1,8.9|
4,2,0.37|
4,3,2.7|
];
constraint_x11_x5=[
0,1,9.4|
0,2,2.3|
0,3,7.9|
0,4,2.5|
1,0,6.4|
1,2,2.1|
1,3,8.6|
1,4,3.3|
2,0,4.1|
2,1,9.1|
2,3,5.1|
2,4,8.9|
3,0,8.5|
3,1,8.4|
3,2,0.37|
3,4,0.76|
4,0,8.6|
4,1,5.6|
4,2,9.4|
4,3,9.4|
];
constraint_x11_x6=[
0,1,1.4|
0,2,1.5|
0,3,9|
0,4,9|
1,0,0.8|
1,2,8.7|
1,3,1.9|
1,4,2|
2,0,1.8|
2,1,6.7|
2,3,5|
2,4,3|
3,0,6.5|
3,1,7.9|
3,2,4.4|
3,4,3.6|
4,0,6.6|
4,1,2.1|
4,2,9.7|
4,3,9.4|
];
constraint_x11_x7=[
0,1,3.7|
0,2,6.7|
0,3,9.9|
0,4,9.9|
1,0,1.4|
1,2,2.5|
1,3,7.4|
1,4,1.3|
2,0,1.9|
2,1,1.6|
2,3,1.9|
2,4,9.1|
3,0,0.066|
3,1,8.3|
3,2,7.3|
3,4,6.3|
4,0,1.5|
4,1,4.8|
4,2,0.33|
4,3,9|
];
constraint_x11_x9=[
0,1,5.3|
0,2,8.3|
0,3,5.6|
0,4,0.79|
1,0,9.1|
1,2,0.78|
1,3,0.39|
1,4,4.6|
2,0,2.1|
2,1,1.1|
2,3,8.3|
2,4,0.32|
3,0,2.6|
3,1,8|
3,2,6.2|
3,4,5.6|
4,0,6.6|
4,1,9.4|
4,2,2.5|
4,3,6.8|
];
constraint_x11_x10=[
0,1,3.7|
0,2,8.1|
0,3,8.4|
0,4,0.12|
1,0,7.1|
1,2,3.6|
1,3,8|
1,4,6.4|
2,0,4.3|
2,1,0.48|
2,3,6.5|
2,4,5.5|
3,0,4.2|
3,1,4.9|
3,2,7.7|
3,4,9.3|
4,0,3.6|
4,1,6.7|
4,2,6.1|
4,3,2.8|
];
constraint_x12_x5=[
0,1,9.1|
0,2,3.3|
0,3,9.8|
0,4,6.2|
1,0,0.43|
1,2,8.4|
1,3,4.6|
1,4,6.7|
2,0,0.79|
2,1,6|
2,3,8|
2,4,9.6|
3,0,5|
3,1,4.5|
3,2,7.5|
3,4,5.1|
4,0,2.4|
4,1,8.2|
4,2,7.2|
4,3,1.1|
];
constraint_x12_x9=[
0,1,8|
0,2,8.8|
0,3,6|
0,4,8|
1,0,9.1|
1,2,4.3|
1,3,0.96|
1,4,7.9|
2,0,7.3|
2,1,8.3|
2,3,1.5|
2,4,0.62|
3,0,1.5|
3,1,5.2|
3,2,3.1|
3,4,0.56|
4,0,4.6|
4,1,8|
4,2,1.4|
4,3,9.9|
];
constraint_x12_x10=[
0,1,4.8|
0,2,4.4|
0,3,6.6|
0,4,5.1|
1,0,0.22|
1,2,9.5|
1,3,4.9|
1,4,2.1|
2,0,3.8|
2,1,8|
2,3,4.1|
2,4,0.45|
3,0,7.3|
3,1,3.6|
3,2,1.5|
3,4,2.2|
4,0,7.2|
4,1,1.7|
4,2,7.9|
4,3,2.3|
];
constraint_x12_x11=[
0,1,5.5|
0,2,9.9|
0,3,4.3|
0,4,8.9|
1,0,9.1|
1,2,5.8|
1,3,4.2|
1,4,3.7|
2,0,6.2|
2,1,5|
2,3,5.4|
2,4,1.1|
3,0,4.5|
3,1,3.8|
3,2,5.5|
3,4,2.5|
4,0,4.8|
4,1,1.8|
4,2,6.3|
4,3,5.4|
];
constraint_x13_x1=[
0,1,9.8|
0,2,6.8|
0,3,3.2|
0,4,9.2|
1,0,7.4|
1,2,2.4|
1,3,2.3|
1,4,8.6|
2,0,1.3|
2,1,5.3|
2,3,5.7|
2,4,6.2|
3,0,0.27|
3,1,9.9|
3,2,7.5|
3,4,5.2|
4,0,8.1|
4,1,0.28|
4,2,2.4|
4,3,7.8|
];
constraint_x13_x8=[
0,1,3.7|
0,2,8.2|
0,3,9.1|
0,4,9.9|
1,0,6.5|
1,2,8.4|
1,3,9.6|
1,4,8.3|
2,0,0.64|
2,1,0.33|
2,3,5.9|
2,4,2.4|
3,0,7.3|
3,1,7.1|
3,2,4.4|
3,4,4|
4,0,7.9|
4,1,4.6|
4,2,2.3|
4,3,9.9|
];
constraint_x13_x9=[
0,1,1.5|
0,2,6.9|
0,3,2.6|
0,4,7.9|
1,0,1.5|
1,2,2.3|
1,3,3.8|
1,4,5.4|
2,0,6.8|
2,1,4.8|
2,3,3.7|
2,4,6.5|
3,0,6.7|
3,1,0.21|
3,2,1.1|
3,4,6.7|
4,0,4.3|
4,1,1.8|
4,2,2.2|
4,3,9.8|
];
constraint_x13_x11=[
0,1,3.3|
0,2,9.8|
0,3,8.2|
0,4,9.2|
1,0,4.7|
1,2,1.8|
1,3,5.8|
1,4,7|
2,0,7.8|
2,1,5.5|
2,3,4.6|
2,4,6.7|
3,0,6.5|
3,1,8.4|
3,2,6.1|
3,4,6.9|
4,0,2.7|
4,1,9.4|
4,2,0.98|
4,3,4.9|
];
constraint_x13_x12=[
0,1,6.7|
0,2,8.5|
0,3,5.1|
0,4,5.9|
1,0,2.5|
1,2,7.3|
1,3,3|
1,4,9.4|
2,0,7.4|
2,1,2.6|
2,3,1.2|
2,4,2.9|
3,0,6.8|
3,1,7.5|
3,2,5.8|
3,4,5.9|
4,0,2.9|
4,1,0.18|
4,2,3.5|
4,3,6|
];
constraint_x14_x3=[
0,1,2.1|
0,2,1.5|
0,3,0.38|
0,4,9.6|
1,0,8.9|
1,2,6.3|
1,3,2.1|
1,4,5.3|
2,0,2.4|
2,1,6.8|
2,3,8.9|
2,4,5.4|
3,0,4|
3,1,8.6|
3,2,9.8|
3,4,1.7|
4,0,5.9|
4,1,5.8|
4,2,3.6|
4,3,1.4|
];
constraint_x14_x5=[
0,1,6.1|
0,2,0.58|
0,3,5.4|
0,4,8.9|
1,0,2.7|
1,2,6.9|
1,3,2.3|
1,4,9.3|
2,0,5.2|
2,1,1.6|
2,3,0.96|
2,4,5.3|
3,0,5.8|
3,1,7.8|
3,2,4.6|
3,4,4.7|
4,0,1|
4,1,0.27|
4,2,3.3|
4,3,1.3|
];
constraint_x14_x7=[
0,1,7.6|
0,2,2.3|
0,3,0.33|
0,4,3.1|
1,0,5.2|
1,2,7.4|
1,3,0.02|
1,4,4.7|
2,0,2.6|
2,1,2.1|
2,3,7|
2,4,2.8|
3,0,7.2|
3,1,9.2|
3,2,9.8|
3,4,8.4|
4,0,3.2|
4,1,6.3|
4,2,0.021|
4,3,4|
];
constraint_x14_x8=[
0,1,7.4|
0,2,7.3|
0,3,7.8|
0,4,4.6|
1,0,9|
1,2,1.4|
1,3,5.2|
1,4,0.0022|
2,0,6.9|
2,1,6.9|
2,3,2.8|
2,4,8.9|
3,0,7.3|
3,1,0.91|
3,2,5.7|
3,4,9|
4,0,3.6|
4,1,9|
4,2,5.7|
4,3,1.6|
];
constraint_x14_x10=[
0,1,4.5|
0,2,5.8|
0,3,3.7|
0,4,8.4|
1,0,6.8|
1,2,4.9|
1,3,7.3|
1,4,10|
2,0,0.88|
2,1,5.3|
2,3,7|
2,4,1|
3,0,2.4|
3,1,9.8|
3,2,1.7|
3,4,4.4|
4,0,9.6|
4,1,4.4|
4,2,8.6|
4,3,8.1|
];
constraint_x14_x11=[
0,1,3.4|
0,2,9.2|
0,3,9.6|
0,4,2.3|
1,0,9|
1,2,8|
1,3,8.5|
1,4,1.4|
2,0,6.6|
2,1,5.7|
2,3,0.12|
2,4,3.7|
3,0,9.8|
3,1,2|
3,2,6.5|
3,4,5.7|
4,0,3.6|
4,1,4.7|
4,2,9.4|
4,3,7.4|
];
constraint_x14_x12=[
0,1,9.9|
0,2,1.9|
0,3,8.3|
0,4,5.3|
1,0,8.6|
1,2,6.1|
1,3,3.6|
1,4,10|
2,0,9.1|
2,1,6.4|
2,3,4.3|
2,4,6.6|
3,0,8.1|
3,1,5.5|
3,2,2.6|
3,4,9.5|
4,0,6|
4,1,1.6|
4,2,2.1|
4,3,9.4|
];
constraint_x14_x13=[
0,1,9.7|
0,2,5.3|
0,3,0.99|
0,4,8.6|
1,0,6.9|
1,2,7.5|
1,3,8.4|
1,4,9.6|
2,0,6.5|
2,1,5.6|
2,3,5.8|
2,4,5.4|
3,0,1.8|
3,1,8.6|
3,2,9.2|
3,4,3.3|
4,0,2.2|
4,1,3.7|
4,2,8.7|
4,3,5|
];
constraint_x2_y2=[
0,0,1.6|
0,1,8.3|
0,2,7.1|
0,3,7.9|
0,4,3.3|
1,0,0.62|
1,1,8.1|
1,2,6.7|
1,3,1.4|
1,4,0.17|
2,0,3.5|
2,1,4.3|
2,2,5.2|
2,3,7.1|
2,4,4.1|
3,0,2|
3,1,0.12|
3,2,2.8|
3,3,5.5|
3,4,6.3|
4,0,5.4|
4,1,4.4|
4,2,3.3|
4,3,2.8|
4,4,7.9|
];
constraint_x3_y3=[
0,0,8|
0,1,2.3|
0,2,1.5|
0,3,2.2|
0,4,9.2|
1,0,1.5|
1,1,7.1|
1,2,7.6|
1,3,8|
1,4,4.6|
2,0,5.7|
2,1,3.5|
2,2,2|
2,3,6.9|
2,4,4.2|
3,0,6.6|
3,1,9.9|
3,2,9.4|
3,3,3.3|
3,4,0.43|
4,0,3.9|
4,1,6.5|
4,2,6.6|
4,3,0.56|
4,4,8.9|
];
constraint_x4_y4=[
0,0,0.63|
0,1,7.2|
0,2,3.5|
0,3,4.8|
0,4,8.5|
1,0,1.7|
1,1,8.6|
1,2,4.9|
1,3,6.3|
1,4,6.5|
2,0,9.4|
2,1,8.5|
2,2,1.7|
2,3,3.4|
2,4,1|
3,0,0.64|
3,1,8.5|
3,2,5.8|
3,3,1|
3,4,0.032|
4,0,3.8|
4,1,5|
4,2,8.7|
4,3,1.5|
4,4,4.9|
];
constraint_x5_y5=[
0,0,3.8|
0,1,9.5|
0,2,9.2|
0,3,7.2|
0,4,7.4|
1,0,9.9|
1,1,6.6|
1,2,9.4|
1,3,1.2|
1,4,9.2|
2,0,9.5|
2,1,5.1|
2,2,0.64|
2,3,3|
2,4,5.3|
3,0,6.4|
3,1,6.6|
3,2,5.9|
3,3,9.3|
3,4,7.7|
4,0,0.86|
4,1,3.5|
4,2,0.4|
4,3,3|
4,4,2.7|
];
constraint_x6_y6=[
0,0,6.6|
0,1,7.4|
0,2,2.5|
0,3,4.1|
0,4,5.7|
1,0,8.7|
1,1,5.9|
1,2,2.5|
1,3,4.5|
1,4,0.15|
2,0,4.6|
2,1,7.5|
2,2,2.9|
2,3,5.5|
2,4,9.6|
3,0,0.57|
3,1,2.6|
3,2,4.3|
3,3,1.2|
3,4,1.9|
4,0,5.5|
4,1,0.013|
4,2,4|
4,3,6.8|
4,4,7.4|
];
constraint_x7_y7=[
0,0,8.7|
0,1,0.66|
0,2,6.1|
0,3,7.3|
0,4,7.5|
1,0,4.2|
1,1,6.8|
1,2,5|
1,3,6.3|
1,4,4|
2,0,2.6|
2,1,2.8|
2,2,1.4|
2,3,8.9|
2,4,2.2|
3,0,9.9|
3,1,5.9|
3,2,3.8|
3,3,1.6|
3,4,5.3|
4,0,7.1|
4,1,4.5|
4,2,7.5|
4,3,9|
4,4,8|
];
constraint_x1_y1=[
0,0,4.3|
0,1,3.5|
0,2,5.3|
0,3,4.9|
0,4,6.6|
1,0,9.3|
1,1,9.3|
1,2,6.5|
1,3,9.8|
1,4,4.6|
2,0,9.1|
2,1,0.71|
2,2,1.7|
2,3,4.9|
2,4,0.0019|
3,0,1.4|
3,1,1.7|
3,2,1.8|
3,3,9.6|
3,4,2.1|
4,0,7.3|
4,1,5.2|
4,2,2.1|
4,3,4.4|
4,4,4.3|
];
initial_distribution_y2=[0.084,0.22,0.15,0.22,0.32];
initial_distribution_y3=[0.22,0.16,0.3,0.036,0.28];
initial_distribution_y4=[0.2,0.24,0.26,0.099,0.21];
initial_distribution_y5=[0.046,0.3,0.29,0.34,0.022];
initial_distribution_y6=[0.15,0.12,0.12,0.47,0.14];
initial_distribution_y7=[0.091,0.25,0.12,0.078,0.46];
initial_distribution_y1=[0.024,0.27,0.24,0.15,0.32];
transition_y2=[
0.081,0.098,0.3,0.26,0.26|
0.18,0.45,0.083,0.052,0.24|
0.13,0.31,0.17,0.37,0.013|
0.089,0.2,0.23,0.41,0.062|
0.15,0.26,0.085,0.14,0.37|
];
transition_y3=[
0.04,0.17,0.28,0.26,0.25|
0.24,0.23,0.24,0.23,0.059|
0.12,0.22,0.012,0.3,0.34|
0.25,0.2,0.02,0.2,0.34|
0.24,0.21,0.091,0.26,0.2|
];
transition_y4=[
0.092,0.048,0.25,0.28,0.33|
0.23,0.14,0.25,0.22,0.16|
0.062,0.2,0.17,0.28,0.29|
0.43,0.056,0.38,0.036,0.096|
0.05,0.35,0.14,0.32,0.13|
];
transition_y5=[
0.38,0.033,0.38,0.055,0.16|
0.0085,0.24,0.081,0.28,0.39|
0.04,0.33,0.091,0.35,0.18|
0.36,0.11,0.21,0.033,0.29|
0.25,0.25,0.17,0.32,0.0096|
];
transition_y6=[
0.29,0.19,0.3,0.19,0.031|
0.27,0.1,0.081,0.23,0.31|
0.23,0.27,0.12,0.17,0.21|
0.098,0.29,0.036,0.26,0.32|
0.29,0.17,0.35,0.017,0.18|
];
transition_y7=[
0.25,0.25,0.12,0.19,0.19|
0.15,0.011,0.2,0.33,0.3|
0.035,0.26,0.24,0.074,0.38|
0.1,0.057,0.11,0.17,0.56|
0.26,0.1,0.13,0.43,0.075|
];
transition_y1=[
0.087,0.3,0.14,0.22,0.26|
0.14,0.37,0.19,0.24,0.067|
0.31,0.15,0.17,0.047,0.32|
0.13,0.19,0.31,0.2,0.17|
0.2,0.099,0.25,0.0054,0.44|
];
